1 0 2
1 2 13
3 4 14
6 5 33
7 8 38
10 9 43
12 11 45
15 17 47
16 18 49
19 20 52
21 23 53
22 24 56
25 26 58
27 28 61
29 30 62
31 32 65
34 35 67
36 37 68
39 40 71
41 42 73
48 44 75
50 46 77
51 59 80
54 60 82
55 79 85
57 84 87
63 89 94
64 91 96
66 93 97
69 95 100
70 98 101
72 99 103
74 102 109
76 104 110
78 107 112
81 108 115
83 111 116
86 113 118
88 114 120
90 117 122
92 119 124
105 121 127
106 123 129
125 126 132
130 128 134
135 131 136
137 133 138
